 vasp.5.4.1 05Feb16 (build Jul 05 2020 17:13:04) complex

 executed on           IFC91_ompi date 2024.04.18  07:43:15

 INCAR:
 POTCAR:   PAW_PBE V 08Apr2002
 POTCAR:   PAW_PBE Mo 08Apr2002
 POTCAR:   PAW_PBE W 08Apr2002
 POTCAR:    PAW_PBE S 17Jan2003

 POTCAR:   PAW_PBE V 08Apr2002
   VRHFIN =V: p6 d4 s1

   TITEL  = PAW_PBE V 08Apr2002
   POMASS =   50.941; ZVAL   =    5.000    mass and valenz
   ENMAX  =  192.543; ENMIN  =  144.408 eV
   QCUT   =   -3.762; QGAM   =    7.524    optimization parameters

   Description
     l     E      TYP  RCUT    TYP  RCUT
     2   .000     23  2.700
     2   .000     23  2.700
     0   .000     23  2.700
     0  2.000     23  2.700
     1   .000     23  2.700
     1  2.000     23  2.700
     3   .000      7   .000

 POTCAR:   PAW_PBE Mo 08Apr2002
   VRHFIN =Mo: 4p5s4d

[...]

 POTCAR:   PAW_PBE W 08Apr2002
   VRHFIN =W : 6s5d

   TITEL  = PAW_PBE W 08Apr2002
   POMASS =  183.850; ZVAL   =    6.000    mass and valenz
   ENMAX  =  223.057; ENMIN  =  167.293 eV
   QCUT   =   -4.049; QGAM   =    8.098    optimization parameters

[...]

 POTCAR:    PAW_PBE S 17Jan2003
   VRHFIN =S : s2p4

   TITEL  = PAW_PBE S 17Jan2003
   POMASS =   32.066; ZVAL   =    6.000    mass and valenz
   ENMAX  =  280.000; ENMIN  =  194.016 eV
   QCUT   =   -4.360; QGAM   =    8.721    optimization parameters

   Description
     l     E      TYP  RCUT    TYP  RCUT
     0   .000     23  1.900
     0   .000     23  1.900
     1   .000     23  1.900
     1   .000     23  1.900
     2   .000     23  1.900

 PAW_PBE V 08Apr2002                    :
 PAW_PBE Mo 08Apr2002                   :
 PAW_PBE W 08Apr2002                    :
  PAW_PBE S 17Jan2003                   :

 POSCAR: crystal structure from VMoWS2 with Hexag
  positions in cartesian coordinates
 exchange correlation table for  LEXCH =        8
   RHO(1)=    0.500       N(1)  =     2000
   RHO(2)=  100.500       N(2)  =     4000

 ion  position               nearest neighbor table
   1  0.000  0.000  0.000-  23 2.34  14 2.34  11 2.36  10 2.36  27 2.36  26 2.36
   2  1.000  0.333  0.000-  25 2.34  10 2.34  13 2.36  12 2.36  22 2.36  23 2.36
   3  0.000  0.667  0.000-  27 2.34  12 2.34  14 2.36  15 2.36  24 2.36  25 2.36
   4  0.333  0.000  0.000-  11 2.34  20 2.34  17 2.36  16 2.36  15 2.36  14 2.36   6 3.34   5 3.34
                             7 3.34   8 3.36
   5  0.333  0.333  0.000-  13 2.34  16 2.34  19 2.36  18 2.36  11 2.36  10 2.36   6 3.34   4 3.34
                             8 3.34   9 3.36
   6  0.333  0.667  0.000-  15 2.34  18 2.34  20 2.36  21 2.36  13 2.36  12 2.36   4 3.34   5 3.34
                             9 3.34   7 3.36
   7  0.667  0.000  0.000-  17 2.34  26 2.34  23 2.36  22 2.36  21 2.36  20 2.36   9 3.34   8 3.34
                             4 3.34   6 3.36
   8  0.667  0.333  0.000-  19 2.34  22 2.34  25 2.36  24 2.36  17 2.36  16 2.36   9 3.34   7 3.34
                             5 3.34   4 3.36
   9  0.667  0.667  0.000-  21 2.34  24 2.34  27 2.36  26 2.36  19 2.36  18 2.36   7 3.34   8 3.34
                             6 3.34   5 3.36
  10  0.111  0.222  0.955-   2 2.34   1 2.36   5 2.36
  11  0.222  0.111  0.045-   4 2.34   1 2.36   5 2.36
  12  0.111  0.556  0.955-   3 2.34   2 2.36   6 2.36
  13  0.222  0.444  0.045-   5 2.34   2 2.36   6 2.36
  14  0.111  0.889  0.955-   1 2.34   3 2.36   4 2.36
  15  0.222  0.777  0.045-   6 2.34   3 2.36   4 2.36
  16  0.444  0.222  0.955-   5 2.34   4 2.36   8 2.36
  17  0.556  0.111  0.045-   7 2.34   4 2.36   8 2.36
  18  0.444  0.556  0.955-   6 2.34   5 2.36   9 2.36
  19  0.556  0.444  0.045-   8 2.34   5 2.36   9 2.36
  20  0.444  0.889  0.955-   4 2.34   6 2.36   7 2.36
  21  0.556  0.777  0.045-   9 2.34   6 2.36   7 2.36
  22  0.777  0.222  0.955-   8 2.34   7 2.36   2 2.36
  23  0.889  0.111  0.045-   1 2.34   7 2.36   2 2.36
  24  0.777  0.556  0.955-   9 2.34   8 2.36   3 2.36
  25  0.889  0.444  0.045-   2 2.34   8 2.36   3 2.36
  26  0.777  0.889  0.955-   7 2.34   9 2.36   1 2.36
  27  0.889  0.777  0.045-   3 2.34   9 2.36   1 2.36

IMPORTANT INFORMATION: All symmetrisations will be switched off!
NOSYMM: (Re-)initialisation of all symmetry stuff for point group C_1.

 KPOINTS: K-POINTS 	#supercell of CrS2 in hexagona

Automatic generation of k-mesh.
Space group operators:
 irot       det(A)        alpha          n_x          n_y          n_z        tau_x        tau_y        tau_z
    1     1.000000     0.000000     1.000000     0.000000     0.000000     0.000000     0.000000     0.000000

 Subroutine IBZKPT returns following result:

 Found     34 irreducible k-points:

 Following reciprocal coordinates:
            Coordinates               Weight
  0.000000  0.000000  0.000000      1.000000
  0.125000  0.000000  0.000000      2.000000
  0.250000  0.000000  0.000000      2.000000
  0.375000  0.000000  0.000000      2.000000
  0.500000  0.000000  0.000000      1.000000
  0.000000  0.125000  0.000000      2.000000
  0.125000  0.125000  0.000000      2.000000
  0.250000  0.125000  0.000000      2.000000
  0.375000  0.125000  0.000000      2.000000
  0.500000  0.125000  0.000000      2.000000
 -0.375000  0.125000  0.000000      2.000000
 -0.250000  0.125000  0.000000      2.000000
 -0.125000  0.125000  0.000000      2.000000
  0.000000  0.250000  0.000000      2.000000
  0.125000  0.250000  0.000000      2.000000
  0.250000  0.250000  0.000000      2.000000
  0.375000  0.250000  0.000000      2.000000
  0.500000  0.250000  0.000000      2.000000
 -0.375000  0.250000  0.000000      2.000000
 -0.250000  0.250000  0.000000      2.000000
 -0.125000  0.250000  0.000000      2.000000
 -0.000000  0.375000  0.000000      2.000000
  0.125000  0.375000  0.000000      2.000000
  0.250000  0.375000  0.000000      2.000000
  0.375000  0.375000  0.000000      2.000000
  0.500000  0.375000  0.000000      2.000000
 -0.375000  0.375000  0.000000      2.000000
 -0.250000  0.375000  0.000000      2.000000
 -0.125000  0.375000  0.000000      2.000000
  0.000000  0.500000  0.000000      1.000000
  0.125000  0.500000  0.000000      2.000000
  0.250000  0.500000  0.000000      2.000000
  0.375000  0.500000  0.000000      2.000000
  0.500000  0.500000  0.000000      1.000000

 Following cartesian coordinates:
            Coordinates               Weight
  0.000000  0.000000  0.000000      1.000000
  0.007209  0.012401  0.000000      2.000000
  0.014418  0.024802  0.000000      2.000000
  0.021626  0.037202  0.000000      2.000000
  0.028835  0.049603  0.000000      1.000000
 -0.007209  0.012401  0.000000      2.000000
  0.000000  0.024802  0.000000      2.000000
  0.007209  0.037202  0.000000      2.000000
  0.014418  0.049603  0.000000      2.000000
  0.021626  0.062004  0.000000      2.000000
 -0.028835 -0.024802  0.000000      2.000000
 -0.021626 -0.012401  0.000000      2.000000
 -0.014418  0.000000  0.000000      2.000000
 -0.014418  0.024802  0.000000      2.000000
 -0.007209  0.037202  0.000000      2.000000
  0.000000  0.049603  0.000000      2.000000
  0.007209  0.062004  0.000000      2.000000
  0.014418  0.074405  0.000000      2.000000
 -0.036044 -0.012401  0.000000      2.000000
 -0.028835  0.000000  0.000000      2.000000
 -0.021626  0.012401  0.000000      2.000000
 -0.021626  0.037202  0.000000      2.000000
 -0.014418  0.049603  0.000000      2.000000
 -0.007209  0.062004  0.000000      2.000000
  0.000000  0.074405  0.000000      2.000000
  0.007209  0.086806  0.000000      2.000000
 -0.043253  0.000000  0.000000      2.000000
 -0.036044  0.012401  0.000000      2.000000
 -0.028835  0.024802  0.000000      2.000000
 -0.028835  0.049603  0.000000      1.000000
 -0.021626  0.062004  0.000000      2.000000
 -0.014418  0.074405  0.000000      2.000000
 -0.007209  0.086806  0.000000      2.000000
  0.000000  0.099206  0.000000      1.000000

 I would recommend the setting:
   dimension x,y,z NGX =    41 NGY =   41 NGZ =  123
 SYSTEM =  unknown system
 POSCAR =  crystal structure from VMoWS2 with Hexag

 Startparameter for this run:
   NWRITE =      2    write-flag & timer
   PREC   = normal    normal or accurate (medium, high low for compatibility)
   ISTART =      0    job   : 0-new  1-cont  2-samecut
   ICHARG =      2    charge: 1-file 2-atom 10-const
   ISPIN  =      1    spin polarized calculation?
   LNONCOLLINEAR =      F non collinear calculations
   LSORBIT =      F    spin-orbit coupling
   INIWAV =      1    electr: 0-lowe 1-rand  2-diag
   LASPH  =      F    aspherical Exc in radial PAW
   METAGGA=      F    non-selfconsistent MetaGGA calc.

 Electronic Relaxation 1
   ENCUT  =  280.0 eV  20.58 Ry    4.54 a.u.  13.68 13.68 40.93*2*pi/ulx,y,z
   ENINI  =  280.0     initial cutoff
   ENAUG  =  373.4 eV  augmentation charge cutoff
   NELM   =     60;   NELMIN=  2; NELMDL= -5     # of ELM steps
   EDIFF  = 0.1E-03   stopping-criterion for ELM
   LREAL  =      F    real-space projection
   NLSPLINE    = F    spline interpolate recip. space projectors
   LCOMPAT=      F    compatible to vasp.4.4
   GGA_COMPAT  = T    GGA compatible to vasp.4.4-vasp.4.6
   LMAXPAW     = -100 max onsite density
   LMAXMIX     =    2 max onsite mixed and CHGCAR
   VOSKOWN=      0    Vosko Wilk Nusair interpolation
   ROPT   =    0.00000   0.00000   0.00000   0.00000
 Ionic relaxation
   EDIFFG = 0.1E-02   stopping-criterion for IOM
   NSW    =    100    number of steps for IOM
   NBLOCK =      1;   KBLOCK =    100    inner block; outer block
   IBRION =      1    ionic relax: 0-MD 1-quasi-New 2-CG
   NFREE  =      0    steps in history (QN), initial steepest desc. (CG)
   ISIF   =      3    stress and relaxation
   IWAVPR =     11    prediction:  0-non 1-charg 2-wave 3-comb
   ISYM   =      0    0-nonsym 1-usesym 2-fastsym
   LCORR  =      T    Harris-Foulkes like correction to forces

   POTIM  = 0.5000    time-step for ionic-motion
   TEIN   =    0.0    initial temperature
   TEBEG  =    0.0;   TEEND  =   0.0 temperature during run
   SMASS  =  -3.00    Nose mass-parameter (am)
   estimated Nose-frequenzy (Omega)   =  0.10E-29 period in steps =****** mass=  -0.230E-26a.u.
   SCALEE = 1.0000    scale energy and forces
   NPACO  =    256;   APACO  = 16.0  distance and # of slots for P.C.
   PSTRESS=    0.0 pullay stress

  Mass of Ions in am
   POMASS =  50.94 95.94183.85 32.07
  Ionic Valenz
   ZVAL   =   5.00  6.00  6.00  6.00
  Atomic Wigner-Seitz radii
  virtual crystal weights
   VCA    =   1.00  1.00  1.00  1.00
   NELECT =     159.0000    total number of electrons
   NUPDOWN=      -1.0000    fix difference up-down

 DOS related values:
   EMIN   =  10.00;   EMAX   =-10.00  energy-range for DOS
   EFERMI =   0.00
   ISMEAR =     0;   SIGMA  =   0.20  broadening in eV -4-tet -1-fermi 0-gaus

 Electronic relaxation 2 (details)
   IALGO  =     38    algorithm
   LDIAG  =      T    sub-space diagonalisation (order eigenvalues)
   LSUBROT=      F    optimize rotation matrix (better conditioning)
   TURBO    =      0    0=normal 1=particle mesh
   IRESTART =      0    0=no restart 2=restart with 2 vectors
   NREBOOT  =      0    no. of reboots
   NMIN     =      0    reboot dimension
   EREF     =   0.00    reference energy to select bands
[...]
      1.92100      3.35900     28.66200         0.188565      0.126220     -2.919328
      3.85900      3.35900      1.33800        -0.029532      0.177692      2.926087
     -0.96900      5.03900     28.66200         0.188542      0.126177     -2.919301
      0.96900      5.03900      1.33800        -0.029514      0.177676      2.925994
     -3.85900      6.71900     28.66200         0.188587      0.126210     -2.919335
     -1.92100      6.71900      1.33800        -0.029608      0.177715      2.926013
      4.81100      5.03900     28.66200         0.476936      0.585696     -2.141000
      6.74900      5.03900      1.33800         0.240298      0.526423      1.384493
      1.92100      6.71900     28.66200         0.476975      0.585691     -2.140947
      3.85900      6.71900      1.33800         0.240304      0.526472      1.384480
     -0.96900      8.39900     28.66200         0.476865      0.585712     -2.140961
      0.96900      8.39900      1.33800         0.240394      0.526478      1.384494
    total drift:                                0.000170      0.000337     -0.000095

  FREE ENERGIE OF THE ION-ELECTRON SYSTEM (eV)
  free  energy   TOTEN  =      -186.83179328 eV

  energy  without entropy=     -186.48668141  energy(sigma->0) =     -186.65923734

 Quasi-Newton relaxation of ions (Broydens 2nd method)
  g(Force)  = 0.476E+01   g(Stress)= 0.349E+00

 Reset! Starting new Quasi-Newton update for ions

[...]

 d Force = 0.2424651E+01[ 0.837E-01, 0.477E+01]  d Energy = 0.1845752E+01 0.579E+00
 d Force = 0.9610842E+03[ 0.944E+03, 0.978E+03]  d Ewald  = 0.2511311E+04-0.155E+04

[...]

 retain information from N=  1 steps
 eigenvalues of (default step * inverse Hessian matrix)
  average eigenvalue of G=   0.2408
 eigenvalue spectrum of G is  0.2408

[...]

 d Force = 0.3858489E-01[ 0.387E-01, 0.385E-01]  d Energy = 0.1103528E+01-0.106E+01
 d Force =-0.2806666E+01[-0.287E+01,-0.274E+01]  d Ewald  =-0.1926293E+04 0.192E+04

[...]

 d Force = 0.5043456E+00[ 0.450E+00, 0.559E+00]  d Energy = 0.1041654E+01-0.537E+00
 d Force = 0.4131447E+03[ 0.423E+03, 0.403E+03]  d Ewald  =-0.1557579E+04 0.197E+04

[...]

 d Force = 0.1036803E+00[ 0.103E+00, 0.105E+00]  d Energy = 0.1045345E+00-0.854E-03
 d Force =-0.5302641E+01[-0.528E+01,-0.533E+01]  d Ewald  = 0.9241740E+01-0.145E+02

[...]

 d Force = 0.1068142E-02[-0.419E-02, 0.632E-02]  d Energy = 0.1719507E-02-0.651E-03
 d Force =-0.7577260E+00[-0.783E+00,-0.733E+00]  d Ewald  = 0.4010316E+02-0.409E+02

[...]

 d Force = 0.5906083E-02[ 0.515E-02, 0.666E-02]  d Energy = 0.5580534E-02 0.326E-03
 d Force =-0.8756511E+01[-0.872E+01,-0.879E+01]  d Ewald  =-0.2962324E+02 0.209E+02

[...]

 d Force = 0.4560127E-02[ 0.416E-02, 0.497E-02]  d Energy = 0.4441400E-02 0.119E-03
 d Force = 0.1075118E+01[ 0.113E+01, 0.102E+01]  d Ewald  = 0.1056071E+02-0.949E+01

[...]

 d Force = 0.3684041E-02[ 0.324E-02, 0.413E-02]  d Energy = 0.3476079E-02 0.208E-03
 d Force = 0.7389912E+01[ 0.744E+01, 0.734E+01]  d Ewald  =-0.2328486E+02 0.307E+02

[...]

 d Force =-0.5290681E-04[-0.110E-03, 0.400E-05]  d Energy =-0.2026539E-05-0.509E-04
 d Force =-0.1897822E+00[-0.190E+00,-0.190E+00]  d Ewald  = 0.2150218E+02-0.217E+02

[...]

 FEWALD executed in parallel

[...]

 eigenvalue-minimisations  : 11680
 total energy-change (2. order) :-0.9748312E-04  (-0.1209486E-03)
 number of electron     158.9999781 magnetization
 augmentation part       -4.2483844 magnetization

 Broyden mixing:
  rms(total) = 0.75410E-02    rms(broyden)= 0.75395E-02
  rms(prec ) = 0.83028E-02
  weight for this iteration     100.00

 eigenvalues of (default mixing * dielectric matrix)
  average eigenvalue GAMMA=   0.3595
  0.3595

[...]

----------------------------------------- Iteration   21(   3)  ---------------------------------------

 eigenvalue-minimisations  :  8960
 total energy-change (2. order) : 0.4919018E-04  (-0.2177332E-04)
 number of electron     158.9999781 magnetization
 augmentation part       -4.2483844 magnetization

 Free energy of the ion-electron system (eV)
  alpha Z        PSCENC =        89.44190651
  Ewald energy   TEWEN  =     44354.09520102
  -Hartree energ DENC   =    -50361.41531488
  -exchange      EXHF   =         0.00000000
  -V(xc)+E(xc)   XCENC  =      -233.55483024
  PAW double counting   =      4098.48726312    -3514.54493864
  entropy T*S    EENTRO =        -0.14312933
  eigenvalues    EBANDS =     -1386.24691772
  atomic energy  EATOM  =      6761.44252427
  Solvation  Ediel_sol  =         0.00000000
  free energy    TOTEN  =      -192.43823588 eV

  energy without entropy =     -192.29510656  energy(sigma->0) =     -192.36667122

 average (electrostatic) potential at core
  the test charge radii are     1.2064  1.2296  1.1823  0.9698
  (the norm of the test charge is              1.0000)
       1 -49.8743       2 -49.8685       3 -49.8750       4 -47.1110       5 -47.1114
       6 -47.1108       7 -49.5314       8 -49.5318       9 -49.5316      10 -94.9864
      11 -95.0793      12 -94.9865      13 -95.0787      14 -94.9870      15 -95.0796
      16 -95.1825      17 -95.2277      18 -95.1825      19 -95.2279      20 -95.1825
      21 -95.2279      22 -94.6864      23 -94.5738      24 -94.6859      25 -94.5736
      26 -94.6859      27 -94.5738

 E-fermi :  -3.2456     XC(G=0):  -2.5576     alpha+bet : -2.3656

[...]

 k-point    34 :       0.5000    0.5000    0.0000
  band No.  band energies     occupation
      1     -17.4262      2.00000
      2     -17.4260      2.00000
      3     -16.7151      2.00000
      4     -16.7147      2.00000
      5     -16.5654      2.00000
      6     -16.5653      2.00000
      7     -16.2182      2.00000
      8     -16.1920      2.00000
      9     -16.1731      2.00000
     10     -16.1725      2.00000
     11     -15.7958      2.00000
     12     -15.7553      2.00000
     13     -15.7550      2.00000
     14     -15.6874      2.00000
     15     -15.4988      2.00000
     16     -15.4987      2.00000
     17     -15.4550      2.00000
     18     -15.2676      2.00000
     19      -9.8254      2.00000
     20      -9.3988      2.00000
     21      -9.1905      2.00000
     22      -9.1903      2.00000
     23      -8.7673      2.00000
     24      -8.7671      2.00000
     25      -8.7474      2.00000
     26      -8.5573      2.00000
     27      -8.5570      2.00000
     28      -8.3729      2.00000
     29      -8.1557      2.00000
     30      -8.0800      2.00000
     31      -8.0797      2.00000
     32      -8.0796      2.00000
     33      -7.7877      2.00000
     34      -7.7873      2.00000
     35      -7.7259      2.00000
     36      -7.7106      2.00000
     37      -7.7101      2.00000
     38      -7.5225      2.00000
     39      -7.5223      2.00000
     40      -7.4301      2.00000
     41      -7.0403      2.00000
     42      -7.0117      2.00000
     43      -7.0115      2.00000
     44      -6.8547      2.00000
     45      -6.7484      2.00000
     46      -6.7476      2.00000
     47      -6.6425      2.00000
     48      -6.5713      2.00000
     49      -6.5713      2.00000
     50      -6.5650      2.00000
     51      -6.3633      2.00000
     52      -6.3140      2.00000
     53      -6.3135      2.00000
     54      -6.2639      2.00000
     55      -6.0839      2.00000
     56      -6.0834      2.00000
     57      -5.9842      2.00000
     58      -5.8653      2.00000
     59      -5.8651      2.00000
     60      -5.7308      2.00000
[...]
    106      -0.2945      0.00000
    107      -0.2938      0.00000
    108      -0.0712      0.00000
    109      -0.0709      0.00000
    110       0.2495      0.00000
    111       0.3763      0.00000
    112       0.5242      0.00000
    113       0.5244      0.00000
    114       1.0602      0.00000
    115       1.0604      0.00000
    116       1.0683      0.00000
    117       1.8400      0.00000
    118       2.2613      0.00000
    119       2.2614      0.00000
    120       2.4126      0.00000

 soft charge-density along one line, spin component           1
         0         1         2         3         4         5         6         7         8         9
 total charge-density along one line

------------------------ aborting loop because EDIFF is reached ----------------------------------------

  FORCE on cell =-STRESS in cart. coord.  units (eV):
  Direction    XX          YY          ZZ          XY          YZ          ZX
  Alpha Z    89.44191    89.44191    89.44191
  Ewald   49316.93281 49265.73949-54228.59407   -44.26454    19.38248    11.12065
  Hartree 50022.89676 49991.17839-49651.86785   -27.44268    11.56730     6.66362
  E(xc)    -609.59698  -610.64614  -617.67745    -0.91045    -0.94953    -0.54736
  Local  ************************101318.67788    64.50319   -39.84946   -22.91926
  n-local  1213.91385  1216.03817  1248.40368     1.87760    -2.79916    -1.62738
  augment  -213.23260  -212.89826  -214.72236     0.27910     0.51820     0.30508
  Kinetic  2008.14488  2014.97046  2054.63066     5.92352    11.86553     6.85248
  Fock        0.00000     0.00000     0.00000     0.00000     0.00000     0.00000
  Total      -0.03710    -0.07633    -1.70761    -0.03425    -0.26463    -0.15218
  in kB      -0.02483    -0.05110    -1.14302    -0.02292    -0.17713    -0.10187

 VOLUME and BASIS-vectors are now :
  energy-cutoff  :      280.00
  volume of cell :     2393.57
      direct lattice vectors                 reciprocal lattice vectors
     8.312126350  4.830704335  0.000000000     0.059957660  0.103840831  0.000000000
    -8.285011400  4.783762777  0.000000000    -0.060546006  0.104180678  0.000000000
     0.000000000  0.000000000 30.000000000     0.000000000  0.000000000  0.033333333

  length of vectors
     9.613903933  9.566911738 30.000000000     0.119907628  0.120496608  0.033333333

 FORCES acting on ions
    electron-ion (+dipol)            ewald-force                    non-local-force                 convergence-correction
   0.119E+02 0.206E+02 0.104E+02   -.127E+02 -.219E+02 -.103E+02   0.768E+00 0.133E+01 -.184E+00   -.303E-01 0.172E-01 -.368E-01
   0.119E+02 0.206E+02 0.105E+02   -.126E+02 -.219E+02 -.103E+02   0.765E+00 0.132E+01 -.184E+00   -.165E-03 -.744E-02 -.395E-01
   0.119E+02 0.207E+02 0.104E+02   -.127E+02 -.220E+02 -.102E+02   0.766E+00 0.133E+01 -.184E+00   0.276E-01 -.147E-01 -.367E-01
   0.705E+01 0.121E+02 0.822E+01   -.696E+01 -.120E+02 -.831E+01   -.132E+00 -.227E+00 0.897E-01   0.360E-01 0.677E-01 0.612E-02
   0.704E+01 0.122E+02 0.819E+01   -.691E+01 -.120E+02 -.827E+01   -.127E+00 -.224E+00 0.875E-01   -.383E-02 0.404E-01 0.534E-03
   0.700E+01 0.122E+02 0.820E+01   -.692E+01 -.120E+02 -.829E+01   -.131E+00 -.224E+00 0.882E-01   0.415E-01 0.195E-01 0.109E-02
   -.177E+02 -.307E+02 -.201E+02   0.181E+02 0.314E+02 0.198E+02   -.410E+00 -.711E+00 0.333E+00   -.168E-01 -.559E-02 0.176E-01
   -.177E+02 -.307E+02 -.202E+02   0.181E+02 0.314E+02 0.198E+02   -.412E+00 -.711E+00 0.333E+00   0.346E-02 -.205E-01 0.171E-01
   -.177E+02 -.307E+02 -.201E+02   0.181E+02 0.314E+02 0.198E+02   -.411E+00 -.711E+00 0.334E+00   -.214E-01 -.341E-01 0.135E-01
   0.121E+02 0.209E+02 0.585E+03   -.126E+02 -.219E+02 -.588E+03   0.561E+00 0.979E+00 0.318E+01   -.538E-01 0.444E-01 -.264E-01
   0.935E+01 0.162E+02 -.588E+03   -.104E+02 -.180E+02 0.591E+03   0.101E+01 0.174E+01 -.306E+01   0.294E-01 0.814E-01 0.609E-01
   0.120E+02 0.209E+02 0.585E+03   -.126E+02 -.219E+02 -.588E+03   0.566E+00 0.976E+00 0.318E+01   0.742E-01 -.258E-01 -.332E-01
   0.939E+01 0.163E+02 -.588E+03   -.104E+02 -.180E+02 0.591E+03   0.100E+01 0.174E+01 -.307E+01   0.107E-01 0.153E-01 -.309E-02
   0.121E+02 0.209E+02 0.585E+03   -.126E+02 -.219E+02 -.588E+03   0.563E+00 0.977E+00 0.318E+01   0.129E-01 0.390E-01 -.902E-01
   0.934E+01 0.162E+02 -.588E+03   -.104E+02 -.180E+02 0.591E+03   0.101E+01 0.174E+01 -.306E+01   0.585E-01 0.739E-01 0.683E-01
   -.375E+01 -.650E+01 0.623E+03   0.427E+01 0.740E+01 -.626E+03   -.514E+00 -.892E+00 0.361E+01   0.404E-02 0.111E-01 -.847E-02
   -.111E+02 -.192E+02 -.627E+03   0.113E+02 0.196E+02 0.631E+03   -.266E+00 -.461E+00 -.399E+01   0.428E-02 0.671E-02 -.192E-01
   -.375E+01 -.648E+01 0.623E+03   0.428E+01 0.740E+01 -.626E+03   -.517E+00 -.892E+00 0.361E+01   -.497E-02 -.887E-02 -.460E-02
   -.111E+02 -.192E+02 -.627E+03   0.113E+02 0.196E+02 0.631E+03   -.264E+00 -.458E+00 -.399E+01   0.699E-03 -.536E-02 -.150E-01
   -.376E+01 -.652E+01 0.623E+03   0.428E+01 0.741E+01 -.626E+03   -.515E+00 -.890E+00 0.361E+01   0.876E-02 0.113E-01 -.876E-02
   -.111E+02 -.192E+02 -.627E+03   0.113E+02 0.196E+02 0.631E+03   -.265E+00 -.458E+00 -.399E+01   -.465E-02 -.726E-03 -.155E-01
   -.965E+01 -.167E+02 0.498E+03   0.984E+01 0.170E+02 -.503E+03   -.189E+00 -.328E+00 0.512E+01   0.224E-02 0.436E-03 -.263E-02
   0.147E+01 0.243E+01 -.489E+03   -.955E+00 -.165E+01 0.494E+03   -.436E+00 -.756E+00 -.477E+01   -.732E-01 -.808E-02 0.303E-01
   -.965E+01 -.167E+02 0.498E+03   0.985E+01 0.171E+02 -.503E+03   -.188E+00 -.326E+00 0.512E+01   -.215E-01 -.663E-01 -.426E-01
   0.138E+01 0.250E+01 -.489E+03   -.975E+00 -.165E+01 0.494E+03   -.436E+00 -.755E+00 -.477E+01   0.337E-01 -.755E-01 0.355E-01
   -.963E+01 -.167E+02 0.498E+03   0.986E+01 0.171E+02 -.503E+03   -.188E+00 -.327E+00 0.512E+01   -.443E-01 -.442E-01 -.381E-01
   0.146E+01 0.250E+01 -.489E+03   -.963E+00 -.166E+01 0.494E+03   -.436E+00 -.753E+00 -.477E+01   -.503E-01 -.721E-01 0.789E-01
   -.119E+01 -.207E+01 -.896E+00   0.941E-13 0.169E-13 0.625E-12   0.117E+01 0.203E+01 0.973E+00   0.226E-01 0.391E-01 -.910E-01

 POSITION                                       TOTAL-FORCE (eV/Angst)
      0.14743      0.25522     -0.04185         0.004869      0.002132     -0.034923
      5.69805      6.68040     -0.04206        -0.001378     -0.001346     -0.033817
     -5.37576      3.44414     -0.04174         0.000301      0.005810     -0.035549
      2.81105      1.67876     -0.02410        -0.004921     -0.009511      0.005185
      0.04877      3.27349     -0.02398        -0.001045     -0.005198      0.004415
     -2.71272      4.86807     -0.02402        -0.004858     -0.004032      0.004668
      5.38343      2.94626      0.06342         0.001041      0.001102      0.019340
      2.62185      4.54066      0.06346         0.000403      0.001719      0.019625
     -0.13996      6.13535      0.06338         0.001126      0.001579      0.020517
     -0.92086      1.59319     28.40984         0.009952      0.013775     -0.027265
      0.92505      1.60172      1.57275        -0.013545     -0.022290     -0.012627
     -3.68277      3.18783     28.41002         0.006538      0.015682     -0.028073
     -1.83670      3.19642      1.57307        -0.012302     -0.021632     -0.013680
     -6.44428      4.78222     28.41042         0.008453      0.013981     -0.030101
     -4.59840      4.79082      1.57287        -0.012567     -0.022762     -0.012051
      1.83628      3.18005     28.31959         0.009056      0.015961      0.022347
      3.67738      3.18003      1.72102        -0.007603     -0.012996      0.026188
     -0.92538      4.77473     28.31944         0.009038      0.015766      0.022467
      0.91562      4.77461      1.72085        -0.007920     -0.012838      0.027607
     -3.68692      6.36932     28.31936         0.009339      0.015826      0.022194
     -1.84609      6.36929      1.72089        -0.007041     -0.013424      0.027403
      4.63044      4.83101     28.68864        -0.004957     -0.008669      0.014882
      6.47369      4.83489      1.29049         0.009538      0.012633     -0.013670
      1.86869      6.42534     28.68867        -0.002635     -0.004993      0.016484
      3.71221      6.42925      1.29051         0.005824      0.015122     -0.013669
     -0.89295      8.02010     28.68862        -0.003460     -0.005538      0.016138
      0.95031      8.02398      1.29043         0.008757      0.014142     -0.014037
    total drift:                                0.000908      0.001070     -0.014368

  FREE ENERGIE OF THE ION-ELECTRON SYSTEM (eV)
  free  energy   TOTEN  =      -192.43823588 eV

  energy  without entropy=     -192.29510656  energy(sigma->0) =     -192.36667122

 d Force = 0.6327543E-03[ 0.593E-03, 0.673E-03]  d Energy = 0.4829188E-03 0.150E-03
 d Force =-0.2169881E+01[-0.217E+01,-0.217E+01]  d Ewald  = 0.4424323E+01-0.659E+01

 Quasi-Newton relaxation of ions (Broydens 2nd method)
  g(Force)  = 0.895E-03   g(Stress)= 0.171E-04

 retain information from N=  2 steps
 eigenvalues of (default step * inverse Hessian matrix)
  average eigenvalue of G=   2.3011
 eigenvalue spectrum of G is  1.4525  3.1496

 reached required accuracy - stopping structural energy minimisation